p cnf 1112 1280
c ind 814 815 816 829 836 862 923 924 937 944 0
c ind 948 950 953 969 971 974 986 987 1006 1008 0
c ind 1012 1023 1024 1028 1029 1030 1034 1036 807 922 0
c ind 837 849 808 809 921 812 813 920 1097 1079 0
c ind 1088 1102 1083 1093 1110 1096 1078 1087 1101 1082 0
c ind 1092 1109 1065 1066 1095 1077 1086 1100 1081 1091 0
c ind 1064 1108 1094 1076 1085 1099 1063 1080 1090 1107 0
c ind 1071 1075 1105 1061 1062 1060 1055 1073 1059 1103 0
c ind 1058 1057 1056 1074 1104 1084 1098 1089 1106 1072 0
c ind 1053 1054 810 811 1052 1047 1051 1050 1049 1048 0
c ind 1068 1045 1046 1038 1039 1044 1069 1043 1042 1041 0
c ind 1040 1018 1019 1017 1016 1015 1037 1027 1025 1026 0
c ind 1014 1013 1035 1022 1011 1033 1031 1032 1020 1021 0
c ind 1010 1009 1002 1070 1067 1007 1005 1003 1004 1001 0
c ind 994 993 1000 999 998 997 996 995 992 991 0
c ind 990 989 988 806 981 980 978 979 977 976 0
c ind 982 983 975 973 984 972 985 970 968 966 0
c ind 967 965 964 963 962 961 960 959 957 958 0
c ind 956 955 954 952 951 949 947 945 946 927 0
c ind 943 938 942 939 940 934 941 936 932 933 0
c ind 935 931 926 930 928 929 925 919 912 904 0
c ind 918 917 916 819 915 898 897 896 914 895 0
c ind 913 894 893 892 911 910 909 908 907 906 0
c ind 905 903 902 901 900 899 891 884 876 890 0
c ind 889 888 887 870 869 868 886 867 885 866 0
c ind 865 864 883 882 881 880 879 878 877 875 0
c ind 874 873 872 871 863 861 859 860 850 851 0
c ind 858 857 856 855 854 852 853 846 845 847 0
c ind 848 844 843 842 841 839 840 838 835 834 0
c ind 830 831 832 833 826 828 825 824 827 818 0
c ind 823 817 822 820 821 1 0
c ret 603 604 605 606 607 608 609 610 611 612 0
c ret 613 614 615 616 617 618 619 620 621 622 0
c ret 623 624 625 626 627 628 629 630 631 632 0
c ret 633 634 635 636 637 638 639 640 641 642 0
c ret 643 644 645 646 647 648 649 650 651 652 0
c ret 653 654 655 656 657 658 659 660 661 662 0
c ret 663 664 665 666 667 668 669 670 671 672 0
c ret 673 674 675 676 677 678 679 680 681 682 0
c ret 683 684 685 686 687 688 689 690 691 692 0
c ret 693 694 695 696 697 698 699 700 701 702 0
c ret 703 704 705 706 707 708 709 710 711 712 0
c ret 713 714 715 716 717 718 719 720 721 722 0
c ret 723 724 725 726 727 728 729 730 731 732 0
c ret 733 734 735 736 737 738 739 740 741 742 0
c ret 743 744 745 746 747 748 749 750 751 752 0
c ret 753 754 755 756 757 758 759 760 761 762 0
c ret 763 764 765 766 767 768 298 769 770 304 0
c ret 305 306 307 308 309 310 311 312 313 314 0
c ret 315 316 317 318 319 320 321 322 323 324 0
c ret 771 772 325 326 773 774 327 328 329 330 0
c ret 331 332 333 334 335 336 337 338 339 340 0
c ret 299 341 342 775 343 776 344 345 777 346 0
c ret 778 347 348 349 350 351 352 353 354 355 0
c ret 356 357 779 358 359 360 361 362 780 363 0
c ret 364 781 365 366 782 367 783 368 369 370 0
c ret 371 372 373 374 375 376 377 378 379 380 0
c ret 784 381 300 382 383 785 384 786 385 386 0
c ret 387 787 388 788 389 390 391 392 393 394 0
c ret 395 396 397 398 399 400 401 402 403 404 0
c ret 405 406 789 407 790 408 409 410 791 792 0
c ret 411 412 413 414 415 416 417 418 419 420 0
c ret 793 421 301 422 423 424 425 426 427 794 0
c ret 428 795 429 430 796 797 431 432 433 434 0
c ret 435 436 437 438 798 439 799 440 441 442 0
c ret 800 443 444 445 446 447 448 449 450 451 0
c ret 452 453 454 455 456 801 457 458 459 460 0
c ret 802 461 803 462 804 463 805 464 465 466 0
c ret 467 468 469 470 471 472 473 474 475 476 0
c ret 477 478 479 480 481 482 483 484 485 486 0
c ret 487 488 489 490 491 492 302 493 494 495 0
c ret 496 497 498 499 500 501 502 503 504 505 0
c ret 506 507 508 509 510 511 512 513 514 515 0
c ret 516 517 518 519 520 521 522 523 524 525 0
c ret 526 527 528 529 530 531 303 532 533 534 0
c ret 535 536 537 538 539 540 541 542 543 544 0
c ret 545 546 547 548 549 550 551 552 553 554 0
c ret 555 556 557 558 559 560 561 562 563 564 0
c ret 565 566 567 568 569 570 571 572 573 574 0
c ret 575 576 577 578 579 580 581 582 583 584 0
c ret 585 586 587 588 589 590 591 592 593 594 0
c ret 595 596 597 598 599 600 601 602 0
2 130 291 -292 0
2 3 291 -292 0
-2 292 0
-2 -291 0
-2 -3 -130 0
3 -4 -54 120 0
3 4 54 -110 0
3 4 54 120 0
3 -4 -54 -110 0
-3 4 -54 0
-3 -4 54 0
-3 110 -120 0
4 5 -11 0
4 5 48 0
-4 -5 0
-4 11 -48 0
5 -6 -7 0
5 -7 -10 0
-5 7 0
-5 6 10 0
6 1038 0
6 -1039 -1045 0
6 1039 -1046 0
-6 -1038 1039 1046 0
-6 -1038 -1039 1045 0
7 -8 -9 0
-6 7 -9 0
-7 9 0
6 -7 8 0
-6 8 0
8 1047 -1054 0
8 -1047 -1053 0
6 -8 -1047 1053 0
6 -8 1047 1054 0
9 1038 0
9 -1039 1045 0
9 1039 1046 0
-9 -1038 1039 -1046 0
-9 -1038 -1039 -1045 0
-6 10 0
10 -1047 1053 0
10 1047 1054 0
6 -10 -1047 -1053 0
6 -10 1047 -1054 0
11 -12 -47 -1088 0
11 12 -13 -47 0
-11 47 0
-11 -12 1088 0
-11 12 13 0
12 1033 -1035 0
-12 -1033 0
-12 1035 0
13 -14 -1087 0
13 14 -15 0
-13 -14 1087 0
-13 14 15 0
14 1005 -1007 0
-14 -1005 0
-14 1007 0
15 16 39 46 0
15 16 39 -42 0
-15 -16 0
-15 -39 0
-15 42 -46 0
16 -37 806 -981 0
16 17 806 981 0
-16 -806 0
-16 37 -981 0
-16 -17 981 0
17 -18 -1084 0
-17 1084 0
-17 18 0
18 -19 33 0
-18 19 0
-18 -33 0
19 -26 27 0
19 20 27 -871 0
-19 -27 0
-19 -20 26 0
-19 26 871 0
20 21 0
20 24 -870 0
20 24 876 0
-20 -21 -24 0
-20 -21 870 -876 0
21 -22 23 -864 -871 0
-21 22 0
-21 -23 0
-21 864 0
-21 871 0
22 865 866 867 0
-22 -865 0
-22 -867 0
-22 -866 0
23 868 -869 0
-23 -868 0
-23 869 0
24 25 870 876 -877 0
-24 -870 0
-24 -25 0
-24 877 0
-24 -876 0
25 884 885 0
-25 -884 0
-25 -885 0
22 26 -864 0
23 26 -864 -870 0
-26 864 0
-22 -26 870 0
-22 -23 -26 0
27 29 32 0
27 29 -31 0
27 28 29 0
-27 -29 0
-27 -28 31 -32 0
28 893 894 895 0
-28 -893 0
-28 -895 0
-28 -894 0
28 29 -892 0
29 30 -892 -898 0
-29 892 0
-28 -29 898 0
-28 -29 -30 0
30 896 -897 0
-30 -896 0
-30 897 0
31 904 905 0
31 904 912 913 0
-31 -904 0
-31 -905 -912 0
-31 -905 -913 0
30 32 -892 898 -899 0
-32 899 0
-30 -32 0
-32 892 0
-32 -898 0
33 -34 -838 0
33 -36 -838 0
33 -35 -838 0
-33 838 0
-33 34 35 36 0
34 -839 840 841 0
-34 839 0
-34 -841 0
-34 -840 0
35 844 847 848 0
-35 -844 0
-35 -848 0
-35 -847 0
36 -844 845 846 0
-36 844 0
-36 -846 0
-36 -845 0
37 -38 1085 0
17 37 38 0
-37 -38 -1085 0
-17 -37 38 0
38 947 -949 0
-38 -947 0
-38 949 0
39 -40 -41 -991 0
39 -40 -41 -992 0
-39 41 0
-39 40 0
-39 991 992 0
40 994 995 996 997 0
-40 -997 0
-40 -996 0
-40 -994 0
-40 -995 0
41 -988 -989 -990 993 0
-41 990 0
-41 -993 0
-41 988 0
-41 989 0
37 42 -43 0
-37 -42 0
-42 43 0
43 44 45 0
-43 -44 0
-43 -45 0
44 960 961 962 0
-44 -960 0
-44 -962 0
-44 -961 0
45 968 -970 0
-45 -968 0
-45 970 0
45 46 -806 0
46 -806 1086 0
-46 806 0
-45 -46 -1086 0
47 -1002 1009 0
-47 1002 0
-47 -1009 0
48 -49 -1002 0
13 15 48 0
13 48 -1002 0
15 48 -49 0
-15 -48 1002 0
-13 -48 49 0
49 51 1009 0
49 -50 51 0
49 51 1002 0
-49 -51 0
-49 50 -1002 -1009 0
50 -1010 1011 0
-50 1010 0
-50 -1011 0
51 52 -53 0
-51 -52 0
-51 53 0
52 1013 -1014 -1015 1016 0
-52 -1013 0
-52 -1016 0
-52 1015 0
-52 1014 0
53 -1002 -1009 -1010 1011 0
-53 1010 0
-53 -1011 0
-53 1002 0
-53 1009 0
54 -55 -65 0
54 -55 104 0
-54 55 0
-54 65 -104 0
55 -56 -58 0
-55 56 0
-55 58 0
56 -57 -617 -646 0
-56 617 0
-56 646 0
-56 57 0
57 -588 -675 -704 -733 0
-57 733 0
-57 588 0
-57 704 0
-57 675 0
58 59 -559 0
-58 559 0
-58 -59 0
59 -60 -61 0
59 -61 -64 0
-59 61 0
-59 60 64 0
60 530 0
60 -531 -537 0
60 531 -538 0
-60 -530 531 538 0
-60 -530 -531 537 0
-60 61 -62 0
61 -62 -63 0
-61 62 0
60 -61 63 0
62 530 0
62 -531 537 0
62 531 538 0
-62 -530 531 -538 0
-62 -530 -531 -537 0
-60 63 0
63 539 -546 0
63 -539 -545 0
60 -63 -539 545 0
60 -63 539 546 0
-60 64 0
64 -539 545 0
64 539 546 0
60 -64 -539 -545 0
60 -64 539 -546 0
65 -66 -103 -783 0
65 66 -67 -103 0
-65 103 0
-65 -66 783 0
-65 66 67 0
66 525 -527 0
-66 -525 0
-66 527 0
67 -68 -782 0
67 68 -69 0
-67 -68 782 0
-67 68 69 0
68 497 -499 0
-68 -497 0
-68 499 0
69 70 95 102 0
69 70 95 -98 0
-69 -70 0
-69 -95 0
-69 98 -102 0
70 -93 298 -473 0
70 71 298 473 0
-70 -298 0
-70 93 -473 0
-70 -71 473 0
71 -72 -779 0
-71 779 0
-71 72 0
72 73 -77 0
-72 -73 0
-72 77 0
73 -74 -330 0
73 -76 -330 0
73 -75 -330 0
-73 330 0
-73 74 75 76 0
74 -331 332 333 0
-74 331 0
-74 -333 0
-74 -332 0
75 336 339 340 0
-75 -336 0
-75 -340 0
-75 -339 0
76 -336 337 338 0
-76 336 0
-76 -338 0
-76 -337 0
77 78 -85 0
77 78 88 -363 0
-77 -78 0
-77 85 -88 0
-77 85 363 0
78 -79 82 0
78 82 384 0
-78 -82 0
-78 79 -384 0
79 -81 387 390 0
79 -80 -81 387 0
-79 -387 0
-79 81 0
-79 80 -390 0
80 388 -389 0
-80 -388 0
-80 389 0
81 385 386 0
-81 -385 0
-81 -386 0
80 -81 82 83 -84 0
81 -82 0
-82 -83 0
-80 -82 0
-82 84 0
83 396 397 0
83 396 404 405 0
-83 -396 0
-83 -397 -404 0
-83 -397 -405 0
84 -384 387 390 -391 0
-84 391 0
-84 -390 0
-84 384 0
-84 -387 0
85 86 -356 0
85 87 -356 -362 0
-85 356 0
-85 -86 362 0
-85 -86 -87 0
86 357 358 359 0
-86 -357 0
-86 -359 0
-86 -358 0
87 360 -361 0
-87 -360 0
-87 361 0
88 89 92 0
-88 -89 0
-88 -92 0
89 -90 -91 -376 0
89 -90 -91 -377 0
-89 91 0
-89 90 0
-89 376 377 0
-86 87 90 -356 -363 0
86 -90 0
-87 -90 0
-90 356 0
-90 363 0
91 362 368 -369 0
-91 369 0
-91 -368 0
-91 -362 0
-90 92 362 -368 0
90 -92 0
-92 368 0
-92 -362 0
93 -94 780 0
71 93 94 0
-93 -94 -780 0
-71 -93 94 0
94 439 -441 0
-94 -439 0
-94 441 0
95 -96 -97 -483 0
95 -96 -97 -484 0
-95 97 0
-95 96 0
-95 483 484 0
96 486 487 488 489 0
-96 -489 0
-96 -488 0
-96 -486 0
-96 -487 0
97 -480 -481 -482 485 0
-97 482 0
-97 -485 0
-97 480 0
-97 481 0
93 98 -99 0
-93 -98 0
-98 99 0
99 100 101 0
-99 -100 0
-99 -101 0
100 452 453 454 0
-100 -452 0
-100 -454 0
-100 -453 0
101 460 -462 0
-101 -460 0
-101 462 0
101 102 -298 0
102 -298 781 0
-102 298 0
-101 -102 -781 0
103 -494 501 0
-103 494 0
-103 -501 0
104 -105 -494 0
67 69 104 0
67 104 -494 0
69 104 -105 0
-69 -104 494 0
-67 -104 105 0
105 107 501 0
105 -106 107 0
105 107 494 0
-105 -107 0
-105 106 -494 -501 0
106 -502 503 0
-106 502 0
-106 -503 0
107 108 -109 0
-107 -108 0
-107 109 0
108 505 -506 -507 508 0
-108 -505 0
-108 -508 0
-108 507 0
-108 506 0
109 -494 -501 -502 503 0
-109 502 0
-109 -503 0
-109 494 0
-109 501 0
5 110 -111 0
5 110 119 0
-5 -110 0
-110 111 -119 0
12 -47 111 -112 0
-12 -47 111 -1110 0
47 -111 0
12 -111 112 0
-12 -111 1110 0
-14 112 -1109 0
14 112 -113 0
-14 -112 1109 0
14 -112 113 0
39 113 114 118 0
39 113 114 -117 0
-39 -113 0
-113 -114 0
-113 117 -118 0
114 -116 806 -981 0
114 115 806 981 0
-114 -806 0
-114 116 -981 0
-114 -115 981 0
-18 115 -1106 0
-115 1106 0
18 -115 0
-38 116 1107 0
38 115 116 0
-38 -116 -1107 0
38 -115 -116 0
-43 116 117 0
43 -117 0
-116 -117 0
45 118 -806 0
118 -806 1108 0
-118 806 0
-45 -118 -1108 0
-49 113 119 0
112 119 -1002 0
-49 119 -1002 0
112 113 119 0
49 -112 -119 0
-113 -119 1002 0
-55 120 -121 0
-55 120 129 0
55 -120 0
-120 121 -129 0
66 -103 121 -122 0
-66 -103 121 -805 0
103 -121 0
66 -121 122 0
-66 -121 805 0
-68 122 -804 0
68 122 -123 0
-68 -122 804 0
68 -122 123 0
95 123 124 128 0
95 123 124 -127 0
-95 -123 0
-123 -124 0
-123 127 -128 0
124 -126 298 -473 0
124 125 298 473 0
-124 -298 0
-124 126 -473 0
-124 -125 473 0
-72 125 -801 0
-125 801 0
72 -125 0
-94 126 802 0
94 125 126 0
-94 -126 -802 0
94 -125 -126 0
-99 126 127 0
99 -127 0
-126 -127 0
101 128 -298 0
128 -298 803 0
-128 298 0
-101 -128 -803 0
-105 123 129 0
122 129 -494 0
-105 129 -494 0
122 123 129 0
105 -122 -129 0
-123 -129 494 0
130 131 140 -149 -270 0
130 -131 -140 -149 -270 0
-130 270 0
-130 -131 140 0
-130 149 0
-130 131 -140 0
5 131 -132 0
5 131 139 0
-5 -131 0
-131 132 -139 0
12 -47 132 -133 0
-12 -47 132 -1083 0
47 -132 0
12 -132 133 0
-12 -132 1083 0
-14 133 -1082 0
14 133 -134 0
-14 -133 1082 0
14 -133 134 0
39 134 135 138 0
39 134 135 -137 0
-39 -134 0
-134 -135 0
-134 137 -138 0
135 -136 806 -981 0
18 135 806 981 0
-135 -806 0
-135 136 -981 0
-18 -135 981 0
-38 136 1080 0
18 38 136 0
-38 -136 -1080 0
-18 38 -136 0
-43 136 137 0
43 -137 0
-136 -137 0
45 138 -806 0
138 -806 1081 0
-138 806 0
-45 -138 -1081 0
-49 134 139 0
133 139 -1002 0
-49 139 -1002 0
133 134 139 0
49 -133 -139 0
-134 -139 1002 0
-55 140 -141 0
-55 140 148 0
55 -140 0
-140 141 -148 0
66 -103 141 -142 0
-66 -103 141 -778 0
103 -141 0
66 -141 142 0
-66 -141 778 0
-68 142 -777 0
68 142 -143 0
-68 -142 777 0
68 -142 143 0
95 143 144 147 0
95 143 144 -146 0
-95 -143 0
-143 -144 0
-143 146 -147 0
144 -145 298 -473 0
72 144 298 473 0
-144 -298 0
-144 145 -473 0
-72 -144 473 0
-94 145 775 0
72 94 145 0
-94 -145 -775 0
-72 94 -145 0
-99 145 146 0
99 -146 0
-145 -146 0
101 147 -298 0
147 -298 776 0
-147 298 0
-101 -147 -776 0
-105 143 148 0
142 148 -494 0
-105 148 -494 0
142 143 148 0
105 -142 -148 0
-143 -148 494 0
149 -150 -198 -250 -260 0
149 -150 -198 250 260 0
-149 198 0
-149 250 -260 0
-149 150 0
-149 -250 260 0
150 -151 -164 -189 0
150 151 164 180 0
150 151 164 -189 0
150 -151 -164 180 0
-150 151 -164 0
-150 -151 164 0
-150 -180 189 0
5 151 -162 0
5 151 -161 0
5 151 -152 0
-5 -151 0
-151 152 161 162 0
152 155 -156 0
-43 152 153 -156 0
-152 156 0
-152 -153 -155 0
43 -152 -155 0
-38 153 1090 0
38 153 154 0
-38 -153 -1090 0
38 -153 -154 0
-18 154 -1089 0
-154 1089 0
18 -154 0
45 155 -806 0
155 -806 1091 0
-155 806 0
-45 -155 -1091 0
156 -157 160 0
-156 157 0
-156 -160 0
39 157 158 0
-39 -157 0
-157 -158 0
-14 158 -1002 0
158 -159 -1002 0
-158 1002 0
14 -158 159 0
-12 51 159 1009 0
-50 51 159 -1009 0
-51 -159 0
50 -159 -1009 0
12 -159 1009 0
-153 160 806 -981 0
154 160 806 981 0
-160 -806 0
153 -160 -981 0
-154 -160 981 0
-12 -47 161 -1093 0
-161 1093 0
12 -161 0
47 -161 0
-14 162 -163 -1092 0
-162 1092 0
14 -162 0
-162 163 0
159 163 -1002 0
-163 1002 0
-159 -163 0
164 -165 -168 0
164 -165 -178 0
164 -165 -177 0
-164 165 0
-164 168 177 178 0
-56 59 165 167 0
-56 59 165 166 0
56 -165 0
-59 -165 0
-165 -166 -167 0
166 559 0
166 -560 -566 0
166 560 -567 0
-166 -559 560 567 0
-166 -559 -560 566 0
167 559 0
167 -560 566 0
167 560 567 0
-167 -559 560 -567 0
-167 -559 -560 -566 0
168 171 -172 0
-99 168 169 -172 0
-168 172 0
-168 -169 -171 0
99 -168 -171 0
-94 169 785 0
94 169 170 0
-94 -169 -785 0
94 -169 -170 0
-72 170 -784 0
-170 784 0
72 -170 0
101 171 -298 0
171 -298 786 0
-171 298 0
-101 -171 -786 0
172 -173 176 0
-172 173 0
-172 -176 0
95 173 174 0
-95 -173 0
-173 -174 0
-68 174 -494 0
174 -175 -494 0
-174 494 0
68 -174 175 0
-66 107 175 501 0
-106 107 175 -501 0
-107 -175 0
106 -175 -501 0
66 -175 501 0
-169 176 298 -473 0
170 176 298 473 0
-176 -298 0
169 -176 -473 0
-170 -176 473 0
-66 -103 177 -788 0
-177 788 0
66 -177 0
103 -177 0
-68 178 -179 -787 0
-178 787 0
68 -178 0
-178 179 0
175 179 -494 0
-179 494 0
-175 -179 0
5 180 -188 0
5 180 -187 0
5 180 -181 0
-5 -180 0
-180 181 187 188 0
181 184 -185 0
-43 181 182 -185 0
-181 185 0
-181 -182 -184 0
43 -181 -184 0
-38 182 1099 0
38 182 183 0
-38 -182 -1099 0
38 -182 -183 0
-18 183 -1098 0
-183 1098 0
18 -183 0
45 184 -806 0
184 -806 1100 0
-184 806 0
-45 -184 -1100 0
-157 185 186 0
157 -185 0
-185 -186 0
-182 186 806 -981 0
183 186 806 981 0
-186 -806 0
182 -186 -981 0
-183 -186 981 0
-12 -47 187 -1102 0
-187 1102 0
12 -187 0
47 -187 0
-14 -163 188 -1101 0
-188 1101 0
14 -188 0
163 -188 0
-165 189 -190 0
-165 189 -197 0
-165 189 -196 0
165 -189 0
-189 190 196 197 0
190 193 -194 0
-99 190 191 -194 0
-190 194 0
-190 -191 -193 0
99 -190 -193 0
-94 191 794 0
94 191 192 0
-94 -191 -794 0
94 -191 -192 0
-72 192 -793 0
-192 793 0
72 -192 0
101 193 -298 0
193 -298 795 0
-193 298 0
-101 -193 -795 0
-173 194 195 0
173 -194 0
-194 -195 0
-191 195 298 -473 0
192 195 298 473 0
-195 -298 0
191 -195 -473 0
-192 -195 473 0
-66 -103 196 -797 0
-196 797 0
66 -196 0
103 -196 0
-68 -179 197 -796 0
-197 796 0
68 -197 0
179 -197 0
-180 198 -199 0
189 198 -199 0
-198 199 0
180 -189 -198 0
199 200 211 -221 -232 0
199 -200 -211 -221 -232 0
-199 232 0
-199 -200 211 0
-199 221 0
-199 200 -211 0
200 -204 298 0
100 200 -201 -204 0
-200 204 0
-200 201 -298 0
-100 -200 -298 0
201 417 -800 0
201 -202 -417 0
-201 202 -417 0
-201 417 800 0
-77 202 -762 0
73 -77 202 203 0
77 -202 0
-202 -203 762 0
-73 -202 762 0
203 309 799 0
-203 -309 0
-203 -799 0
204 205 -208 0
-204 -205 0
-204 208 0
201 205 206 0
201 202 205 0
202 205 -206 298 0
-201 -205 206 0
-202 -205 -206 0
-201 -205 -298 0
206 -207 473 474 0
-206 207 0
-206 -474 0
-206 -473 0
207 475 476 477 0
-207 -475 0
-207 -477 0
-207 -476 0
-56 208 209 -210 -559 0
-208 210 0
-208 559 0
56 -208 0
-208 -209 0
-61 209 530 0
-61 -64 209 0
61 -209 0
64 -209 -530 0
95 109 210 0
95 108 210 0
-95 -210 0
-108 -109 -210 0
211 212 -219 806 0
211 212 -218 -219 0
-211 219 0
-211 -212 0
-211 218 -806 0
212 213 217 0
212 215 217 0
212 213 -215 806 0
-212 -213 -215 0
-212 215 -217 0
-212 -217 -806 0
-19 213 -1067 0
-19 33 213 214 0
19 -213 0
-213 -214 1067 0
-33 -213 1067 0
214 817 1104 0
-214 -817 0
-214 -1104 0
215 -216 981 982 985 0
-215 216 0
-215 -985 0
-215 -981 0
-215 -982 0
216 983 984 0
-216 -983 0
-216 -984 0
217 925 -1105 0
-213 217 -925 0
213 -217 -925 0
-217 925 1105 0
44 -217 218 0
-44 -218 0
217 -218 0
7 219 -220 0
10 219 -220 -1038 0
-219 220 0
-7 -10 -219 0
-7 -219 1038 0
39 53 220 0
39 52 220 0
-39 -220 0
-52 -53 -220 0
221 222 225 228 -229 0
221 -222 -225 228 -229 0
-221 -228 0
-221 222 -225 0
-221 229 0
-221 -222 225 0
-77 -208 222 223 -224 0
-222 224 0
77 -222 0
208 -222 0
-222 -223 0
-100 223 -298 0
-223 298 0
100 -223 0
224 -762 764 0
-224 762 0
-224 -764 0
-19 -219 225 -226 227 0
-225 226 0
-225 -227 0
19 -225 0
219 -225 0
226 -1067 1069 0
-226 1067 0
-226 -1069 0
-44 227 -806 0
-227 806 0
44 -227 0
-8 -9 -10 228 0
8 -228 0
9 -228 0
10 -228 0
20 27 229 -230 0
-26 27 229 -230 0
-229 230 0
-27 -229 0
-20 26 -229 0
33 -220 227 230 -231 0
220 -230 0
-227 -230 0
-33 -230 0
-230 231 0
231 -809 -810 0
231 -808 811 0
231 -808 -810 0
231 -809 811 0
-231 810 -811 0
-231 808 809 0
232 -233 -241 0
232 233 241 0
-232 233 -241 0
-232 -233 241 0
-219 233 234 0
219 -233 0
-233 -234 0
215 234 -235 0
234 239 240 0
234 -235 239 0
-234 235 -240 0
-215 -234 -239 0
-234 235 -239 0
235 236 -925 0
-19 235 -238 925 0
-235 -236 -925 0
19 -235 925 0
-235 238 925 0
-19 236 -237 0
19 -236 0
-236 237 0
237 -1067 -1069 0
33 237 1067 0
237 -1067 -1073 0
-33 -237 1067 0
-237 -1067 1069 1073 0
238 -1067 1069 1075 0
-238 1067 0
-238 -1075 0
-238 -1069 0
215 239 806 0
-236 239 806 0
-239 -806 0
-215 236 -239 0
44 240 -806 0
-240 806 0
-44 -240 0
241 -246 298 0
100 241 242 -246 0
-241 246 0
-241 -242 -298 0
-100 -241 -298 0
242 243 -417 0
-77 242 -245 417 0
-242 -243 -417 0
77 -242 417 0
-242 245 417 0
-77 243 -244 0
77 -243 0
-243 244 0
244 -762 -764 0
73 244 762 0
244 -762 -768 0
-73 -244 762 0
-244 -762 764 768 0
245 -762 764 770 0
-245 762 0
-245 -770 0
-245 -764 0
-208 246 -247 248 0
-208 242 246 248 0
208 -246 0
-246 -248 0
-242 -246 247 0
247 473 474 0
-247 -473 0
-247 -474 0
243 248 -249 0
207 -242 248 0
207 248 -249 0
-242 243 248 0
242 -248 249 0
-207 -243 -248 0
-206 249 298 0
-249 -298 0
206 -249 0
5 250 251 259 0
5 158 250 251 0
-5 -250 0
-250 -251 0
-158 -250 -259 0
251 253 1002 0
14 251 252 253 0
-251 -253 0
-251 -252 -1002 0
-14 -251 -1002 0
-12 252 1009 -1097 0
12 -252 0
-252 1097 0
-252 -1009 0
39 253 254 258 0
39 253 254 -257 0
-39 -253 0
-253 -254 0
-253 257 -258 0
254 -256 806 -981 0
254 255 806 981 0
-254 -806 0
-254 256 -981 0
-254 -255 981 0
-18 255 -810 0
-255 810 0
18 -255 0
-38 256 1094 0
38 255 256 0
-38 -256 -1094 0
38 -255 -256 0
-43 256 257 0
43 -257 0
-256 -257 0
45 258 -806 0
258 -806 1095 0
-258 806 0
-45 -258 -1095 0
-159 252 259 0
252 259 1096 0
-252 -259 0
159 -259 -1096 0
-56 -58 260 261 269 0
58 -260 0
-260 -269 0
56 -260 0
-260 -261 0
261 263 494 0
68 261 262 263 0
-261 -263 0
-261 -262 -494 0
-68 -261 -494 0
-66 262 501 -792 0
66 -262 0
-262 792 0
-262 -501 0
95 263 264 268 0
95 263 264 -267 0
-95 -263 0
-263 -264 0
-263 267 -268 0
264 -266 298 -473 0
264 265 298 473 0
-264 -298 0
-264 266 -473 0
-264 -265 473 0
-72 265 -302 0
-265 302 0
72 -265 0
-94 266 789 0
94 265 266 0
-94 -266 -789 0
94 -265 -266 0
-99 266 267 0
99 -267 0
-266 -267 0
101 268 -298 0
268 -298 790 0
-268 298 0
-101 -268 -790 0
-174 -175 262 269 0
-174 262 269 791 0
174 -269 0
-262 -269 0
175 -269 -791 0
110 270 -271 -281 0
-120 270 271 281 0
110 270 271 281 0
-120 270 -271 -281 0
-270 271 -281 0
-270 -271 281 0
-110 120 -270 0
5 271 -272 0
5 271 280 0
-5 -271 0
-271 272 -280 0
12 -47 272 -273 0
-12 -47 272 -1079 0
47 -272 0
12 -272 273 0
-12 -272 1079 0
-14 273 -1078 0
14 273 -274 0
-14 -273 1078 0
14 -273 274 0
39 274 275 279 0
39 274 275 -278 0
-39 -274 0
-274 -275 0
-274 278 -279 0
275 276 -806 1077 0
45 275 276 -806 0
-275 806 0
-275 -276 0
-45 -275 -1077 0
-43 276 277 0
43 -276 0
-276 -277 0
18 38 277 0
-38 277 1076 0
38 277 811 0
-38 -277 -1076 0
-18 38 -277 -811 0
-18 38 278 -811 0
-18 278 -811 981 0
18 -278 0
-278 811 0
-38 -278 -981 0
279 806 1076 0
279 806 981 0
38 279 806 0
-279 -806 0
-38 -279 -981 -1076 0
-49 274 280 0
273 280 -1002 0
-49 280 -1002 0
273 274 280 0
49 -273 -280 0
-274 -280 1002 0
-55 281 -282 0
-55 281 290 0
55 -281 0
-281 282 -290 0
66 -103 282 -283 0
-66 -103 282 -774 0
103 -282 0
66 -282 283 0
-66 -282 774 0
-68 283 -773 0
68 283 -284 0
-68 -283 773 0
68 -283 284 0
95 284 285 289 0
95 284 285 -288 0
-95 -284 0
-284 -285 0
-284 288 -289 0
285 286 -298 772 0
101 285 286 -298 0
-285 298 0
-285 -286 0
-101 -285 -772 0
-99 286 287 0
99 -286 0
-286 -287 0
72 94 287 0
-94 287 771 0
94 287 303 0
-94 -287 -771 0
-72 94 -287 -303 0
-72 94 288 -303 0
-72 288 -303 473 0
72 -288 0
-288 303 0
-94 -288 -473 0
289 298 771 0
289 298 473 0
94 289 298 0
-289 -298 0
-94 -289 -473 -771 0
-105 284 290 0
283 290 -494 0
-105 290 -494 0
283 284 290 0
105 -283 -290 0
-284 -290 494 0
-62 -63 -64 291 0
62 -291 0
63 -291 0
64 -291 0
-85 292 -293 0
-89 292 -293 0
-92 292 -293 0
-292 293 0
85 89 92 -292 0
73 78 -210 293 -294 0
-73 -293 0
-293 294 0
210 -293 0
-78 -293 0
223 294 -295 -296 -297 0
-223 -294 0
-294 297 0
-294 296 0
-294 295 0
295 -675 -704 -733 0
-295 675 0
-295 704 0
-295 733 0
296 -559 -588 -617 -646 0
-296 646 0
-296 559 0
-296 617 0
-296 588 0
297 -301 -302 0
297 -300 303 0
297 -300 -302 0
297 -301 303 0
-297 302 -303 0
-297 300 301 0
1 2 0
-1 -2 0
1111 0

